variable dump equal 50000
variable thermo equal 50000
variable steps equal 1000000
variable eqs equal 100000
variable av equal ${dump}/10

variable nmb_1 equal 50  # Define atom number
variable sig_1 equal 3  # Define LJ parameters (sigma)
variable eps_1 equal 0.1  # Define LJ parameters (epsilon)
variable mss_1 equal 10  # Define atom mass        
variable L equal 20  # Define box size
variable rc equal 2.5*${sig_1}  # Define cut_off (angstrom)
variable T equal 300  # Pick the desired temperature (kelvin)
variable mu equal -4 

# main parameters
units real
dimension 3
atom_style atomic
pair_style lj/cut ${rc}
boundary p p p

variable L2 equal ${L}/2
region myreg block -${L2} ${L2} -${L2} ${L2} -${L2} ${L2}
create_box 1 myreg
create_atoms 1 random ${nmb_1} 14141 myreg

mass 1 ${mss_1}
pair_coeff 1 1 ${eps_1} ${sig_1}

timestep 0.1
fix mygcmc all gcmc 1 1 0 1 29494 ${T} ${mu} 0.01

thermo ${thermo}
dump mydmp all custom ${dump} dump.lammpstrj id type x y z vx vy vz

run ${eqs}  # equilibration

variable atom atom "type==1"
group atom dynamic all var atom
variable n_atom equal count(atom)
variable density equal v_n_atom/vol
fix myat1 all ave/time 10 ${av} ${dump} v_density file density.dat

run ${steps}
