# LAMMPS input file 

include variable.lammps

# main parameters
units real
dimension 3
atom_style full
pair_style lj/cut 10 # /coul/long
#kspace_style ewald 1e-4
boundary p p p

read_data initial.data
include PARM.lammps

neigh_modify every 1

thermo ${thermo_minimize}
dump mydmp all custom ${dumping_minimize} lammps-output/dump.md.lammpstrj id type x y z vx vy vz
min_style sd
minimize 1.0e-10 1.0e-10 ${minimization_steps} ${minimization_steps}
min_style cg
undump mydmp
reset_timestep 0

velocity all create ${temp} 4928459
fix mynve all nve
fix mytber all temp/berendsen ${temp} ${temp} ${tau_temp}
if "${pber} == 1" then "fix mypber all press/berendsen iso ${press} ${press} ${tau_press} modulus 1"
timestep ${time_step}

thermo ${thermo}
dump mydmp all custom ${dump} lammps-output/dump.md.lammpstrj id type x y z vx vy vz

variable Ecoul equal ecoul
variable Evdwl equal evdwl
variable Epot equal pe
variable Ekin equal ke
variable Etot equal v_Epot+v_Ekin
variable volume equal vol
variable pressure equal press
variable temperature equal temp
variable mass equal mass(all)
variable density equal v_mass/v_volume/6.022e23*(1e8)^3 # g/cm3
fix myat1 all ave/time ${thermo} 1 ${thermo} v_Epot file lammps-output/Epot.dat
fix myat2 all ave/time ${thermo} 1 ${thermo} v_Ekin file lammps-output/Ekin.dat
fix myat3 all ave/time ${thermo} 1 ${thermo} v_Etot file lammps-output/Etot.dat
fix myat4 all ave/time ${thermo} 1 ${thermo} v_Ecoul file lammps-output/Ecoul.dat
fix myat5 all ave/time ${thermo} 1 ${thermo} v_Evdwl file lammps-output/Evdwl.dat
fix myat6 all ave/time ${thermo} 1 ${thermo} v_pressure file lammps-output/pressure.dat
fix myat7 all ave/time ${thermo} 1 ${thermo} v_temperature file lammps-output/temperature.dat
fix myat8 all ave/time ${thermo} 1 ${thermo} v_volume file lammps-output/volume.dat
fix myat9 all ave/time ${thermo} 1 ${thermo} v_density file lammps-output/density.dat

run ${maximum_steps}
