# LAMMPS parameter file 

mass 1 1.0
mass 2 1.0

pair_coeff 1 1 0.1 3.0
pair_coeff 2 2 1.0 6.0

