
mass 1 15.9994
mass 2 1.008

pair_coeff 1 1 0.185199 3.1589
pair_coeff 2 2 0.0 1.0
pair_coeff 1 2 0.0 1.0
