# LAMMPS-compatible parameter file

mass 1 15.999400
mass 2 1.008000

pair_coeff 1 1 0.185199 3.1589
pair_coeff 2 2 0.000000 1.0000
pair_coeff 1 2 0.000000 1.0000
